1390
164
99
102
200
76
67
795
97
650
111
759
539
97
170
107
263
171
118
197
128
110
149
122
137
141
527
139
74
151
164
272
242
412
163
140
175
221
99
103
250
284
132
228
271
128
216
80
198
874
278
354
326
237
324
166
162
204
215
5756
430
517
55
89
625
224
398
134
63
180
92
141
397
274
364
250
80
164
120
685
178
153
503
160
125
454
295
807
80
269
221
89
81
230
563
190
135
307
68
194
